peakDumbCharging = 3700; 
Machine = anon_enum(16); 
machineSpeed = [3700,3700,3700,3700,3700,3700,3700,3700,3700,3700,3700,3700,3700,3700,3700,3700]; 
machineLoad = [3700,3700,3700,3700,3700,3700,3700,3700,3700,3700,3700,3700,3700,3700,3700,3700]; 
Car = anon_enum(3); 
demandCar = [25200,5560,8040]; 
arrivalCar = [70,64,48]; 
departureCar = [79,68,51]; 
